presolving:
(round 1, fast)       613 del vars, 575 del conss, 0 add conss, 187 chg bounds, 0 chg sides, 0 chg coeffs, 0 upgd conss, 0 impls, 688 clqs
(round 2, fast)       899 del vars, 684 del conss, 0 add conss, 187 chg bounds, 0 chg sides, 0 chg coeffs, 0 upgd conss, 0 impls, 688 clqs
   (0.0s) running MILP presolver
   (0.0s) MILP presolver (2 rounds): 4 aggregations, 0 fixings, 0 bound changes
(round 3, medium)     903 del vars, 684 del conss, 0 add conss, 187 chg bounds, 0 chg sides, 0 chg coeffs, 0 upgd conss, 0 impls, 667 clqs
(round 4, fast)       903 del vars, 688 del conss, 0 add conss, 187 chg bounds, 0 chg sides, 0 chg coeffs, 0 upgd conss, 0 impls, 696 clqs
(round 5, exhaustive) 903 del vars, 688 del conss, 0 add conss, 187 chg bounds, 0 chg sides, 0 chg coeffs, 1425 upgd conss, 0 impls, 696 clqs
   (0.5s) probing cycle finished: starting next cycle
   (0.5s) symmetry computation started: requiring (bin +, int -, cont +), (fixed: bin -, int +, cont -)
   (0.5s) no symmetry present
presolving (6 rounds: 6 fast, 3 medium, 2 exhaustive):
 903 deleted vars, 688 deleted constraints, 0 added constraints, 187 tightened bounds, 0 added holes, 0 changed sides, 0 changed coefficients
 0 implications, 26691 cliques
presolved problem has 922 variables (922 bin, 0 int, 0 impl, 0 cont) and 1425 constraints
    692 constraints of type <setppc>
    733 constraints of type <logicor>
transformed objective value is always integral (scale: 1)
Presolving Time: 0.50

 time | node  | left  |LP iter|LP it/n|mem/heur|mdpt |vars |cons |rows |cuts |sepa|confs|strbr|  dualbound   | primalbound  |  gap   | compl. 
t 0.5s|     1 |     0 |     0 |     - | trivial|   0 | 922 |1425 |   0 |   0 |  0 |   0 |   0 | 9.336000e+03 | 0.000000e+00 |    Inf | unknown
p 0.5s|     1 |     0 |     0 |     - |  clique|   0 | 922 |1425 |1425 |   0 |  0 |   0 |   0 | 9.336000e+03 | 8.230000e+02 |1034.39%| unknown
p 0.5s|     1 |     0 |     0 |     - |   locks|   0 | 922 |1426 |1425 |   0 |  0 |   1 |   0 | 9.336000e+03 | 1.844000e+03 | 406.29%| unknown
  0.8s|     1 |     0 |  2588 |     - |    24M |   0 | 922 |1436 |1425 |   0 |  0 |  11 |   0 | 4.618797e+03 | 1.844000e+03 | 150.48%| unknown
  1.1s|     1 |     0 |  3226 |     - |    28M |   0 | 922 |1437 |1428 |   3 |  1 |  12 |   0 | 4.555917e+03 | 1.844000e+03 | 147.07%| unknown
  1.4s|     1 |     0 |  4047 |     - |    30M |   0 | 922 |1438 |1436 |  11 |  2 |  13 |   0 | 4.475313e+03 | 1.844000e+03 | 142.70%| unknown
  1.6s|     1 |     0 |  4535 |     - |    34M |   0 | 922 |1439 |1445 |  20 |  3 |  14 |   0 | 4.425581e+03 | 1.844000e+03 | 140.00%| unknown
  1.8s|     1 |     0 |  4875 |     - |    38M |   0 | 922 |1440 |1454 |  29 |  4 |  15 |   0 | 4.398671e+03 | 1.844000e+03 | 138.54%| unknown
  2.0s|     1 |     0 |  5293 |     - |    42M |   0 | 922 |1441 |1460 |  35 |  5 |  16 |   0 | 4.379009e+03 | 1.844000e+03 | 137.47%| unknown
  2.2s|     1 |     0 |  5865 |     - |    47M |   0 | 922 |1442 |1469 |  44 |  6 |  17 |   0 | 4.340511e+03 | 1.844000e+03 | 135.39%| unknown
  2.4s|     1 |     0 |  6263 |     - |    49M |   0 | 922 |1443 |1476 |  51 |  7 |  18 |   0 | 4.303390e+03 | 1.844000e+03 | 133.37%| unknown
  2.6s|     1 |     0 |  6629 |     - |    53M |   0 | 922 |1444 |1487 |  62 |  8 |  19 |   0 | 4.268966e+03 | 1.844000e+03 | 131.51%| unknown
  2.8s|     1 |     0 |  6936 |     - |    56M |   0 | 922 |1445 |1494 |  69 |  9 |  20 |   0 | 4.247013e+03 | 1.844000e+03 | 130.32%| unknown
  2.9s|     1 |     0 |  7225 |     - |    60M |   0 | 922 |1446 |1502 |  77 | 10 |  21 |   0 | 4.230522e+03 | 1.844000e+03 | 129.42%| unknown
  3.0s|     1 |     0 |  7438 |     - |    60M |   0 | 922 |1448 |1509 |  84 | 11 |  23 |   0 | 4.219393e+03 | 1.844000e+03 | 128.82%| unknown
 time | node  | left  |LP iter|LP it/n|mem/heur|mdpt |vars |cons |rows |cuts |sepa|confs|strbr|  dualbound   | primalbound  |  gap   | compl. 
  3.0s|     1 |     0 |  7649 |     - |    60M |   0 | 922 |1449 |1516 |  91 | 12 |  24 |   0 | 4.211664e+03 | 1.844000e+03 | 128.40%| unknown
  3.1s|     1 |     0 |  7975 |     - |    60M |   0 | 922 |1450 |1523 |  98 | 13 |  25 |   0 | 4.194822e+03 | 1.844000e+03 | 127.48%| unknown
  3.2s|     1 |     0 |  8336 |     - |    61M |   0 | 922 |1451 |1529 | 104 | 14 |  26 |   0 | 4.170567e+03 | 1.844000e+03 | 126.17%| unknown
  3.2s|     1 |     0 |  8608 |     - |    61M |   0 | 922 |1452 |1538 | 113 | 15 |  27 |   0 | 4.160926e+03 | 1.844000e+03 | 125.65%| unknown
  3.3s|     1 |     0 |  8772 |     - |    61M |   0 | 922 |1453 |1542 | 117 | 16 |  28 |   0 | 4.155290e+03 | 1.844000e+03 | 125.34%| unknown
  3.3s|     1 |     0 |  8926 |     - |    61M |   0 | 922 |1454 |1536 | 119 | 17 |  29 |   0 | 4.149251e+03 | 1.844000e+03 | 125.01%| unknown
  3.4s|     1 |     0 |  9123 |     - |    61M |   0 | 922 |1455 |1539 | 122 | 18 |  30 |   0 | 4.141103e+03 | 1.844000e+03 | 124.57%| unknown
  3.4s|     1 |     0 |  9378 |     - |    61M |   0 | 922 |1456 |1546 | 129 | 19 |  31 |   0 | 4.133160e+03 | 1.844000e+03 | 124.14%| unknown
  3.5s|     1 |     0 |  9556 |     - |    62M |   0 | 922 |1457 |1548 | 131 | 20 |  32 |   0 | 4.126049e+03 | 1.844000e+03 | 123.76%| unknown
  3.5s|     1 |     0 |  9715 |     - |    62M |   0 | 922 |1458 |1553 | 136 | 21 |  33 |   0 | 4.121351e+03 | 1.844000e+03 | 123.50%| unknown
  3.5s|     1 |     0 |  9807 |     - |    62M |   0 | 922 |1459 |1557 | 140 | 22 |  34 |   0 | 4.120000e+03 | 1.844000e+03 | 123.43%| unknown
  3.5s|     1 |     0 |  9847 |     - |    62M |   0 | 922 |1460 |1552 | 141 | 23 |  35 |   0 | 4.119844e+03 | 1.844000e+03 | 123.42%| unknown
  3.6s|     1 |     0 |  9947 |     - |    62M |   0 | 922 |1461 |1557 | 146 | 24 |  36 |   0 | 4.118234e+03 | 1.844000e+03 | 123.33%| unknown
  3.6s|     1 |     0 | 10058 |     - |    62M |   0 | 922 |1463 |1561 | 150 | 25 |  38 |   0 | 4.116739e+03 | 1.844000e+03 | 123.25%| unknown
  3.6s|     1 |     0 | 10096 |     - |    62M |   0 | 922 |1464 |1565 | 154 | 26 |  39 |   0 | 4.116507e+03 | 1.844000e+03 | 123.24%| unknown
 time | node  | left  |LP iter|LP it/n|mem/heur|mdpt |vars |cons |rows |cuts |sepa|confs|strbr|  dualbound   | primalbound  |  gap   | compl. 
  3.6s|     1 |     0 | 10163 |     - |    62M |   0 | 922 |1465 |1570 | 159 | 27 |  40 |   0 | 4.116009e+03 | 1.844000e+03 | 123.21%| unknown
  3.7s|     1 |     0 | 10177 |     - |    62M |   0 | 922 |1466 |1571 | 160 | 28 |  41 |   0 | 4.115870e+03 | 1.844000e+03 | 123.20%| unknown
  3.7s|     1 |     0 | 10211 |     - |    62M |   0 | 922 |1467 |1567 | 165 | 29 |  42 |   0 | 4.115650e+03 | 1.844000e+03 | 123.19%| unknown
  3.7s|     1 |     0 | 10285 |     - |    62M |   0 | 922 |1468 |1572 | 170 | 30 |  43 |   0 | 4.115078e+03 | 1.844000e+03 | 123.16%| unknown
  3.7s|     1 |     0 | 10345 |     - |    62M |   0 | 922 |1469 |1576 | 174 | 31 |  44 |   0 | 4.114591e+03 | 1.844000e+03 | 123.13%| unknown
  3.8s|     1 |     0 | 10356 |     - |    62M |   0 | 922 |1470 |1577 | 175 | 32 |  45 |   0 | 4.114584e+03 | 1.844000e+03 | 123.13%| unknown
  3.8s|     1 |     0 | 10388 |     - |    62M |   0 | 922 |1472 |1581 | 179 | 33 |  47 |   0 | 4.114461e+03 | 1.844000e+03 | 123.13%| unknown
  3.8s|     1 |     0 | 10412 |     - |    62M |   0 | 922 |1473 |1585 | 183 | 34 |  48 |   0 | 4.114222e+03 | 1.844000e+03 | 123.11%| unknown
  3.8s|     1 |     0 | 10423 |     - |    62M |   0 | 922 |1474 |1577 | 185 | 35 |  49 |   0 | 4.114187e+03 | 1.844000e+03 | 123.11%| unknown
d 4.1s|     1 |     0 | 13055 |     - |farkasdi|   0 | 922 |1475 |1577 |   0 | 37 |  50 |   0 | 4.114187e+03 | 2.620000e+03 |  57.03%| unknown
L11.4s|     1 |     0 | 19048 |     - |    rens|   0 | 922 |1475 |1577 | 185 | 37 |  52 |   0 | 4.114187e+03 | 3.218000e+03 |  27.85%| unknown
 11.5s|     1 |     0 | 19048 |     - |    62M |   0 | 922 |1475 |1577 | 185 | 37 |  52 |   0 | 4.114187e+03 | 3.218000e+03 |  27.85%| unknown
 14.1s|     1 |     2 | 19048 |     - |    62M |   0 | 922 |1476 |1577 | 185 | 39 |  53 |  30 | 4.081255e+03 | 3.218000e+03 |  26.83%| unknown
 29.6s|   100 |     7 | 36788 | 266.3 |    72M |  17 | 922 |1544 |1584 | 247 |  1 | 122 | 392 | 4.024590e+03 | 3.218000e+03 |  25.06%|  17.67%
 32.6s|   200 |     5 | 46747 | 182.5 |    79M |  18 | 922 |1543 |1590 | 339 |  0 | 122 | 414 | 3.974431e+03 | 3.218000e+03 |  23.51%|  20.83%
 time | node  | left  |LP iter|LP it/n|mem/heur|mdpt |vars |cons |rows |cuts |sepa|confs|strbr|  dualbound   | primalbound  |  gap   | compl. 
 35.2s|   300 |     5 | 59434 | 163.9 |    86M |  19 | 922 |1557 |1591 | 450 |  0 | 137 | 423 | 3.968109e+03 | 3.218000e+03 |  23.31%|  21.55%
 38.5s|   400 |     7 | 74850 | 161.5 |    87M |  19 | 922 |1559 |1606 | 528 |  1 | 142 | 451 | 3.895957e+03 | 3.218000e+03 |  21.07%|  42.95%
 40.8s|   500 |    11 | 86033 | 151.5 |    87M |  22 | 922 |1564 |1611 | 572 |  2 | 150 | 469 | 3.801919e+03 | 3.218000e+03 |  18.15%|  46.49%
*42.0s|   591 |    10 | 92327 | 138.8 |    LP  |  22 | 922 |1572 |1612 | 578 |  2 | 158 | 488 | 3.801919e+03 | 3.225000e+03 |  17.89%|  46.50%
 42.1s|   600 |    13 | 92682 | 137.3 |    88M |  23 | 922 |1572 |1612 | 578 |  1 | 158 | 488 | 3.801919e+03 | 3.225000e+03 |  17.89%|  47.46%
*42.4s|   622 |    11 | 95565 | 137.1 |    LP  |  24 | 922 |1571 |1613 | 581 |  2 | 158 | 488 | 3.795577e+03 | 3.256000e+03 |  16.57%|  53.17%
*42.4s|   626 |    10 | 95719 | 136.5 |    LP  |  24 | 922 |1571 |1613 | 581 |  2 | 158 | 488 | 3.795577e+03 | 3.290000e+03 |  15.37%|  53.74%
 43.9s|   700 |    12 |104179 | 134.1 |    88M |  25 | 922 |1584 |1627 | 590 |  4 | 171 | 509 | 3.730866e+03 | 3.290000e+03 |  13.40%|  60.63%
 45.9s|   800 |    14 |115150 | 131.1 |    88M |  28 | 922 |1588 |1628 | 608 |  2 | 175 | 537 | 3.613299e+03 | 3.290000e+03 |   9.83%|  68.51%
 47.4s|   900 |     6 |123617 | 125.9 |    88M |  32 | 922 |1596 |1625 | 635 |  0 | 184 | 560 | 3.510988e+03 | 3.290000e+03 |   6.72%|  83.42%

SCIP Status        : problem is solved [optimal solution found]
Solving Time (sec) : 47.84
Solving Nodes      : 918
Primal Bound       : +3.29000000000000e+03 (15 solutions)
Dual Bound         : +3.29000000000000e+03
Gap                : 0.00 %
Solve Status: optimal
Solve Time: 47.84 seconds
